p cnf 376
-6 -118
-7 -121
-8 -124
-9 -127
-10 -130
-11 131
-12 132
-13 133
-14 134
-15 -7
-15 -8
7 8 15
-16 -9
-16 -10
9 10 16
-17 -11
-17 -12
11 12 17
-18 -13
-18 -14
13 14 18
-19 15
-19 16
-15 -16 19
-20 17
-20 18
-17 -18 20
-21 19
-21 20
-19 -20 21
-22 -6
-22 7
6 -7 22
-23 6
-23 -7
-6 7 23
-24 -22
-24 -23
22 23 24
-25 6
-25 7
-6 -7 25
-26 -6
-26 -24
6 24 26
-27 6
-27 24
-6 -24 27
-28 -26
-28 -27
26 27 28
-29 6
-29 -24
-6 24 29
-30 -25
-30 -29
25 29 30
-31 -7
-31 8
7 -8 31
-32 7
-32 -8
-7 8 32
-33 -31
-33 -32
31 32 33
-34 7
-34 8
-7 -8 34
-35 30
-35 -33
-30 33 35
-36 -30
-36 33
30 -33 36
-37 -35
-37 -36
35 36 37
-38 -30
-38 -33
30 33 38
-39 -34
-39 -38
34 38 39
-40 -8
-40 9
8 -9 40
-41 8
-41 -9
-8 9 41
-42 -40
-42 -41
40 41 42
-43 8
-43 9
-8 -9 43
-44 39
-44 -42
-39 42 44
-45 -39
-45 42
39 -42 45
-46 -44
-46 -45
44 45 46
-47 -39
-47 -42
39 42 47
-48 -43
-48 -47
43 47 48
-49 -9
-49 10
9 -10 49
-50 9
-50 -10
-9 10 50
-51 -49
-51 -50
49 50 51
-52 9
-52 10
-9 -10 52
-53 48
-53 -51
-48 51 53
-54 -48
-54 51
48 -51 54
-55 -53
-55 -54
53 54 55
-56 -48
-56 -51
48 51 56
-57 -52
-57 -56
52 56 57
-58 -10
-58 11
10 -11 58
-59 10
-59 -11
-10 11 59
-60 -58
-60 -59
58 59 60
-61 10
-61 11
-10 -11 61
-62 57
-62 -60
-57 60 62
-63 -57
-63 60
57 -60 63
-64 -62
-64 -63
62 63 64
-65 -57
-65 -60
57 60 65
-66 -61
-66 -65
61 65 66
-67 -11
-67 12
11 -12 67
-68 11
-68 -12
-11 12 68
-69 -67
-69 -68
67 68 69
-70 11
-70 12
-11 -12 70
-71 66
-71 -69
-66 69 71
-72 -66
-72 69
66 -69 72
-73 -71
-73 -72
71 72 73
-74 -66
-74 -69
66 69 74
-75 -70
-75 -74
70 74 75
-76 -12
-76 13
12 -13 76
-77 12
-77 -13
-12 13 77
-78 -76
-78 -77
76 77 78
-79 12
-79 13
-12 -13 79
-80 75
-80 -78
-75 78 80
-81 -75
-81 78
75 -78 81
-82 -80
-82 -81
80 81 82
-83 -75
-83 -78
75 78 83
-84 -79
-84 -83
79 83 84
-85 -13
-85 14
13 -14 85
-86 13
-86 -14
-13 14 86
-87 -85
-87 -86
85 86 87
-88 13
-88 14
-13 -14 88
-89 84
-89 -87
-84 87 89
-90 -84
-90 87
84 -87 90
-91 -89
-91 -90
89 90 91
-92 -84
-92 -87
84 87 92
-93 -88
-93 -92
88 92 93
-94 6
-94 -28
-6 28 94
-95 -6
-95 8
6 -8 95
-96 -94
-96 -95
94 95 96
-97 6
-97 -37
-6 37 97
-98 -6
-98 9
6 -9 98
-99 -97
-99 -98
97 98 99
-100 6
-100 -46
-6 46 100
-101 -6
-101 10
6 -10 101
-102 -100
-102 -101
100 101 102
-103 6
-103 -55
-6 55 103
-104 -6
-104 11
6 -11 104
-105 -103
-105 -104
103 104 105
-106 6
-106 -64
-6 64 106
-107 -6
-107 12
6 -12 107
-108 -106
-108 -107
106 107 108
-109 6
-109 -73
-6 73 109
-110 -6
-110 13
6 -13 110
-111 -109
-111 -110
109 110 111
-112 6
-112 -82
-6 82 112
-113 -6
-113 14
6 -14 113
-114 -112
-114 -113
112 113 114
-115 6
-115 -91
-6 91 115
-116 1
-116 21
-1 -21 116
-117 -21
-117 22
21 -22 117
-118 -116
-118 -117
116 117 118
-119 2
-119 21
-2 -21 119
-120 -21
-120 -96
21 96 120
-121 -119
-121 -120
119 120 121
-122 3
-122 21
-3 -21 122
-123 -21
-123 -99
21 99 123
-124 -122
-124 -123
122 123 124
-125 4
-125 21
-4 -21 125
-126 -21
-126 -102
21 102 126
-127 -125
-127 -126
125 126 127
-128 5
-128 21
-5 -21 128
-129 -21
-129 -105
21 105 129
-130 -128
-130 -129
128 129 130
-131 -21
-131 -108
21 108 131
-132 -21
-132 -111
21 111 132
-133 -21
-133 -114
21 114 133
-134 -21
-134 115
21 -115 134
-135 -14
-135 93
14 -93 135
-136 6
-136 -135
-6 135 136
136
